30
1 0 121
2 0 82
2 1 120
3 0 128
3 1 40
3 2 61
4 0 64
4 1 108
4 2 97
4 3 5
5 0 5
5 1 143
5 2 2
5 3 107
5 4 6
6 0 157
6 1 49
6 2 9
6 3 81
6 4 141
6 5 144
7 0 134
7 1 3
7 2 150
7 3 136
7 4 27
7 5 144
7 6 4
8 0 89
8 1 31
8 2 144
8 3 18
8 4 75
8 5 52
8 6 77
8 7 119
9 0 132
9 1 56
9 2 38
9 3 39
9 4 64
9 5 157
9 6 4
9 7 99
9 8 91
10 0 36
10 1 147
10 2 77
10 3 60
10 4 109
10 5 10
10 6 76
10 7 56
10 8 131
10 9 156
11 0 155
11 1 31
11 2 97
11 3 150
11 4 14
11 5 101
11 6 35
11 7 79
11 8 46
11 9 11
11 10 104
12 0 30
12 1 4
12 2 132
12 3 58
12 4 12
12 5 48
12 6 11
12 7 74
12 8 107
12 9 11
12 10 124
12 11 154
13 0 48
13 1 130
13 2 45
13 3 160
13 4 10
13 5 123
13 6 38
13 7 45
13 8 132
13 9 98
13 10 23
13 11 3
13 12 13
14 0 95
14 1 108
14 2 10
14 3 69
14 4 64
14 5 71
14 6 20
14 7 14
14 8 38
14 9 11
14 10 35
14 11 115
14 12 3
14 13 81
15 0 119
15 1 68
15 2 76
15 3 20
15 4 126
15 5 123
15 6 103
15 7 4
15 8 103
15 9 13
15 10 29
15 11 63
15 12 94
15 13 70
15 14 36
16 0 18
16 1 61
16 2 26
16 3 150
16 4 129
16 5 18
16 6 99
16 7 140
16 8 160
16 9 45
16 10 107
16 11 126
16 12 32
16 13 37
16 14 21
16 15 94
17 0 149
17 1 65
17 2 6
17 3 86
17 4 30
17 5 2
17 6 95
17 7 133
17 8 112
17 9 156
17 10 5
17 11 39
17 12 3
17 13 62
17 14 144
17 15 76
17 16 63
18 0 129
18 1 62
18 2 45
18 3 131
18 4 2
18 5 116
18 6 103
18 7 130
18 8 37
18 9 130
18 10 81
18 11 124
18 12 134
18 13 91
18 14 134
18 15 4
18 16 3
18 17 114
19 0 9
19 1 122
19 2 160
19 3 140
19 4 5
19 5 106
19 6 120
19 7 51
19 8 45
19 9 137
19 10 54
19 11 109
19 12 6
19 13 56
19 14 35
19 15 79
19 16 39
19 17 52
19 18 43
20 0 54
20 1 124
20 2 126
20 3 47
20 4 154
20 5 56
20 6 77
20 7 48
20 8 120
20 9 148
20 10 13
20 11 125
20 12 40
20 13 100
20 14 6
20 15 133
20 16 116
20 17 64
20 18 108
20 19 125
21 0 155
21 1 7
21 2 49
21 3 113
21 4 125
21 5 32
21 6 82
21 7 4
21 8 141
21 9 85
21 10 142
21 11 153
21 12 18
21 13 24
21 14 134
21 15 108
21 16 46
21 17 5
21 18 41
21 19 50
21 20 1
22 0 155
22 1 30
22 2 31
22 3 32
22 4 38
22 5 123
22 6 156
22 7 63
22 8 33
22 9 11
22 10 93
22 11 131
22 12 58
22 13 100
22 14 8
22 15 143
22 16 92
22 17 127
22 18 115
22 19 127
22 20 97
22 21 35
23 0 53
23 1 150
23 2 18
23 3 1
23 4 18
23 5 132
23 6 110
23 7 71
23 8 114
23 9 68
23 10 114
23 11 57
23 12 110
23 13 6
23 14 158
23 15 64
23 16 145
23 17 72
23 18 83
23 19 143
23 20 3
23 21 105
23 22 133
24 0 9
24 1 141
24 2 91
24 3 114
24 4 98
24 5 95
24 6 75
24 7 57
24 8 48
24 9 85
24 10 16
24 11 19
24 12 103
24 13 85
24 14 104
24 15 84
24 16 155
24 17 16
24 18 6
24 19 29
24 20 112
24 21 50
24 22 49
24 23 113
25 0 38
25 1 131
25 2 148
25 3 137
25 4 15
25 5 158
25 6 59
25 7 70
25 8 157
25 9 49
25 10 54
25 11 125
25 12 8
25 13 59
25 14 47
25 15 115
25 16 89
25 17 31
25 18 67
25 19 64
25 20 91
25 21 113
25 22 3
25 23 75
25 24 79
26 0 80
26 1 152
26 2 56
26 3 91
26 4 61
26 5 122
26 6 99
26 7 99
26 8 35
26 9 74
26 10 133
26 11 103
26 12 10
26 13 21
26 14 38
26 15 19
26 16 109
26 17 145
26 18 34
26 19 4
26 20 136
26 21 153
26 22 58
26 23 1
26 24 20
26 25 65
27 0 99
27 1 32
27 2 146
27 3 85
27 4 138
27 5 87
27 6 3
27 7 80
27 8 124
27 9 116
27 10 18
27 11 91
27 12 159
27 13 5
27 14 100
27 15 78
27 16 131
27 17 112
27 18 23
27 19 82
27 20 159
27 21 98
27 22 46
27 23 49
27 24 58
27 25 68
27 26 95
28 0 96
28 1 53
28 2 68
28 3 154
28 4 71
28 5 84
28 6 117
28 7 94
28 8 46
28 9 11
28 10 112
28 11 83
28 12 69
28 13 44
28 14 78
28 15 49
28 16 65
28 17 131
28 18 51
28 19 34
28 20 60
28 21 97
28 22 126
28 23 17
28 24 108
28 25 135
28 26 42
28 27 154
29 0 4
29 1 25
29 2 47
29 3 89
29 4 160
29 5 114
29 6 77
29 7 133
29 8 145
29 9 99
29 10 47
29 11 156
29 12 8
29 13 25
29 14 117
29 15 39
29 16 4
29 17 89
29 18 144
29 19 157
29 20 105
29 21 71
29 22 126
29 23 74
29 24 90
29 25 9
29 26 148
29 27 78
29 28 83
